g3 1 1 0	# problem tmp
 12 11 1 0 6	# vars, constraints, objectives, ranges, eqns
 10 1 0 3	# nonlinear constrs, objs; ccons: lin, nonlin
 0 0	# network constraints: nonlinear, linear
 12 1 1	# nonlinear vars in constraints, objectives, both
 0 0 0 1	# linear network variables; functions; arith, flags
 0 0 0 0 0	# discrete variables: binary, integer, nonlinear (b,c,o)
 37 1	# nonzeros in Jacobian, gradients
 0 0	# max name lengths: constraints, variables
 0 0 0 0 0	# common exprs: b,c,o,c1,o1
C0
o16
o5
v6
n2
C1
o2
o2
n2
o1
v3
v1
v9
C2
o2
o2
n2
o1
v6
v2
v9
C3
o2
o2
n2
o1
v4
v1
v10
C4
o2
o2
n2
o1
v7
v2
v10
C5
o2
o2
n2
o1
v5
v1
v11
C6
o2
o2
n2
o1
v8
v2
v11
C7
o54
3
o16
o5
o1
v3
v1
n2
o16
o5
o1
v6
v2
n2
o5
v0
n2
C8
o54
3
o16
o5
o1
v4
v1
n2
o16
o5
o1
v7
v2
n2
o5
v0
n2
C9
o54
3
o16
o5
o1
v5
v1
n2
o16
o5
o1
v8
v2
n2
o5
v0
n2
C10
n0
O0 1
o2
n3.141592654
o5
v0
n2
x12
0 1
1 0
2 0
3 -1.000000000000073
4 0.2425356250359245
5 0
6 0
7 0.9701425001468117
8 -1.000000000026019
9 0.5000000393303194
10 0.5153882031999911
11 0.4999999999777709
r
1 0
4 -1
4 0
4 0.25
4 1
4 0
4 -1
5 1 10
5 1 11
5 1 12
1 0.75
b
3
3
3
3
3
3
3
3
2 -1
2 0
2 0
2 0
k11
3
9
15
18
21
23
26
29
31
33
35
J0 2
3 -1
6 0
J1 3
1 0
3 0
9 0
J2 3
2 0
6 2
9 0
J3 3
1 0
4 0
10 0
J4 3
2 0
7 0
10 0
J5 3
1 0
5 0
11 0
J6 3
2 0
8 0
11 0
J7 5
0 0
1 0
2 0
3 0
6 0
J8 5
0 0
1 0
2 0
4 0
7 0
J9 5
0 0
1 0
2 0
5 0
8 0
J10 2
4 0.25
7 1
G0 1
0 0
